SECTION Graph
Nodes 310
Edges 514
E 1 2 5
E 2 3 5
E 3 4 5
E 4 5 5
E 5 6 5
E 6 7 5
E 7 8 5
E 8 9 5
E 9 10 5
E 10 11 5
E 11 12 5
E 12 13 5
E 13 14 5
E 14 15 5
E 15 16 5
E 16 17 5
E 17 18 5
E 18 19 5
E 1 20 13
E 2 21 13
E 3 22 13
E 4 23 13
E 5 24 13
E 6 25 13
E 7 26 13
E 8 27 13
E 9 28 13
E 10 29 13
E 11 30 13
E 12 31 13
E 14 32 13
E 15 33 13
E 19 34 13
E 20 21 5
E 21 22 5
E 22 23 5
E 23 24 5
E 24 25 5
E 25 26 5
E 26 27 5
E 27 28 5
E 28 29 5
E 29 30 5
E 30 31 5
E 32 33 5
E 20 35 13
E 22 36 13
E 23 37 13
E 24 38 13
E 25 39 13
E 29 40 13
E 31 41 13
E 32 43 13
E 33 44 13
E 34 45 13
E 36 37 5
E 37 38 5
E 38 39 5
E 41 42 5
E 42 43 5
E 43 44 5
E 35 46 13
E 36 48 13
E 38 49 13
E 39 50 13
E 40 54 13
E 41 56 13
E 42 57 13
E 43 58 13
E 44 59 13
E 45 60 13
E 46 47 5
E 47 48 5
E 49 50 5
E 50 51 5
E 51 52 5
E 52 53 5
E 53 54 5
E 54 55 5
E 55 56 5
E 56 57 5
E 57 58 5
E 58 59 5
E 46 61 13
E 48 62 13
E 49 64 13
E 50 65 13
E 51 66 13
E 52 67 13
E 53 68 13
E 54 69 13
E 55 70 13
E 56 71 13
E 57 72 13
E 58 73 13
E 59 74 13
E 60 75 13
E 62 63 5
E 63 64 5
E 64 65 5
E 65 66 5
E 66 67 5
E 67 68 5
E 68 69 5
E 69 70 5
E 70 71 5
E 71 72 5
E 72 73 5
E 73 74 5
E 61 76 13
E 62 78 13
E 63 79 13
E 64 80 13
E 65 81 13
E 67 82 13
E 68 83 13
E 69 84 13
E 70 85 13
E 71 86 13
E 72 87 13
E 73 88 13
E 74 89 13
E 75 93 13
E 76 77 5
E 77 78 5
E 78 79 5
E 79 80 5
E 80 81 5
E 82 83 5
E 83 84 5
E 84 85 5
E 85 86 5
E 86 87 5
E 87 88 5
E 88 89 5
E 89 90 5
E 90 91 5
E 91 92 5
E 92 93 5
E 76 94 13
E 77 95 13
E 78 96 13
E 79 97 13
E 80 98 13
E 81 99 13
E 82 101 13
E 83 102 13
E 84 103 13
E 85 104 13
E 86 105 13
E 87 106 13
E 88 107 13
E 89 108 13
E 90 109 13
E 91 110 13
E 92 111 13
E 93 112 13
E 94 95 5
E 95 96 5
E 96 97 5
E 97 98 5
E 98 99 5
E 99 100 5
E 100 101 5
E 101 102 5
E 102 103 5
E 103 104 5
E 104 105 5
E 105 106 5
E 106 107 5
E 107 108 5
E 108 109 5
E 109 110 5
E 110 111 5
E 111 112 5
E 94 113 13
E 95 114 13
E 96 115 13
E 97 116 13
E 98 117 13
E 99 118 13
E 100 119 13
E 101 120 13
E 102 121 13
E 103 122 13
E 104 123 13
E 107 126 13
E 108 127 13
E 109 128 13
E 110 129 13
E 111 130 13
E 112 131 13
E 113 114 5
E 114 115 5
E 115 116 5
E 116 117 5
E 117 118 5
E 118 119 5
E 119 120 5
E 120 121 5
E 121 122 5
E 122 123 5
E 123 124 5
E 124 125 5
E 125 126 5
E 126 127 5
E 127 128 5
E 128 129 5
E 129 130 5
E 130 131 5
E 113 132 13
E 114 133 13
E 115 134 13
E 116 135 13
E 117 136 13
E 118 137 13
E 119 138 13
E 120 139 13
E 122 140 13
E 123 141 13
E 124 142 13
E 125 143 13
E 127 144 13
E 128 145 13
E 129 146 13
E 130 147 13
E 131 148 13
E 132 133 5
E 133 134 5
E 134 135 5
E 135 136 5
E 136 137 5
E 137 138 5
E 138 139 5
E 140 141 5
E 141 142 5
E 142 143 5
E 144 145 5
E 145 146 5
E 146 147 5
E 147 148 5
E 133 149 13
E 134 150 13
E 135 151 13
E 136 152 13
E 137 153 13
E 138 154 13
E 139 155 13
E 140 157 13
E 141 158 13
E 142 159 13
E 143 160 13
E 144 162 13
E 147 165 13
E 148 166 13
E 149 150 5
E 150 151 5
E 151 152 5
E 152 153 5
E 153 154 5
E 154 155 5
E 155 156 5
E 156 157 5
E 157 158 5
E 158 159 5
E 159 160 5
E 160 161 5
E 161 162 5
E 162 163 5
E 163 164 5
E 164 165 5
E 165 166 5
E 149 168 13
E 150 169 13
E 151 170 13
E 153 171 13
E 154 172 13
E 155 173 13
E 156 174 13
E 157 175 13
E 158 176 13
E 159 177 13
E 160 178 13
E 161 179 13
E 165 180 13
E 166 181 13
E 167 168 5
E 168 169 5
E 169 170 5
E 171 172 5
E 172 173 5
E 173 174 5
E 174 175 5
E 175 176 5
E 176 177 5
E 177 178 5
E 178 179 5
E 180 181 5
E 167 182 13
E 168 183 13
E 170 184 13
E 171 186 13
E 172 187 13
E 173 188 13
E 174 189 13
E 175 190 13
E 176 191 13
E 177 192 13
E 178 193 13
E 179 194 13
E 180 198 13
E 181 199 13
E 182 183 5
E 184 185 5
E 185 186 5
E 186 187 5
E 187 188 5
E 188 189 5
E 189 190 5
E 190 191 5
E 191 192 5
E 192 193 5
E 193 194 5
E 194 195 5
E 195 196 5
E 196 197 5
E 197 198 5
E 198 199 5
E 182 200 13
E 183 201 13
E 184 203 13
E 185 204 13
E 186 205 13
E 187 206 13
E 188 207 13
E 189 208 13
E 190 209 13
E 191 210 13
E 194 213 13
E 195 214 13
E 196 215 13
E 197 216 13
E 198 217 13
E 199 218 13
E 200 201 5
E 201 202 5
E 202 203 5
E 203 204 5
E 204 205 5
E 205 206 5
E 206 207 5
E 207 208 5
E 208 209 5
E 209 210 5
E 210 211 5
E 211 212 5
E 212 213 5
E 213 214 5
E 214 215 5
E 215 216 5
E 216 217 5
E 217 218 5
E 200 219 13
E 201 220 13
E 205 221 13
E 206 222 13
E 207 223 13
E 209 224 13
E 210 225 13
E 211 226 13
E 212 227 13
E 213 228 13
E 216 231 13
E 217 232 13
E 218 233 13
E 219 220 5
E 221 222 5
E 222 223 5
E 224 225 5
E 225 226 5
E 226 227 5
E 227 228 5
E 228 229 5
E 229 230 5
E 230 231 5
E 231 232 5
E 232 233 5
E 219 234 13
E 220 235 13
E 221 239 13
E 222 240 13
E 223 241 13
E 224 243 13
E 225 244 13
E 226 245 13
E 227 246 13
E 228 247 13
E 229 248 13
E 230 249 13
E 231 250 13
E 233 251 13
E 234 235 5
E 235 236 5
E 236 237 5
E 237 238 5
E 238 239 5
E 239 240 5
E 240 241 5
E 241 242 5
E 242 243 5
E 243 244 5
E 244 245 5
E 245 246 5
E 246 247 5
E 247 248 5
E 248 249 5
E 249 250 5
E 234 252 13
E 235 253 13
E 236 254 13
E 237 255 13
E 238 256 13
E 239 257 13
E 243 258 13
E 244 259 13
E 246 260 13
E 247 261 13
E 250 264 13
E 251 266 13
E 252 253 5
E 253 254 5
E 254 255 5
E 255 256 5
E 256 257 5
E 258 259 5
E 260 261 5
E 261 262 5
E 262 263 5
E 263 264 5
E 264 265 5
E 265 266 5
E 255 267 13
E 257 268 13
E 258 272 13
E 259 273 13
E 260 275 13
E 261 276 13
E 265 277 13
E 266 278 13
E 268 269 5
E 269 270 5
E 270 271 5
E 271 272 5
E 272 273 5
E 273 274 5
E 274 275 5
E 275 276 5
E 277 278 5
E 267 282 13
E 268 284 13
E 269 285 13
E 270 286 13
E 271 287 13
E 272 288 13
E 273 289 13
E 274 290 13
E 275 291 13
E 276 292 13
E 277 293 13
E 278 294 13
E 279 280 5
E 280 281 5
E 281 282 5
E 282 283 5
E 283 284 5
E 284 285 5
E 285 286 5
E 286 287 5
E 287 288 5
E 288 289 5
E 289 290 5
E 290 291 5
E 291 292 5
E 293 294 5
E 279 295 13
E 280 296 13
E 281 297 13
E 282 298 13
E 283 299 13
E 284 300 13
E 285 301 13
E 286 302 13
E 287 303 13
E 288 304 13
E 289 305 13
E 290 306 13
E 291 307 13
E 292 308 13
E 293 309 13
E 294 310 13
E 295 296 5
E 296 297 5
E 297 298 5
E 298 299 5
E 299 300 5
E 300 301 5
E 301 302 5
E 302 303 5
E 303 304 5
E 304 305 5
E 305 306 5
E 306 307 5
E 307 308 5
E 309 310 5
END

SECTION Terminals
Terminals 17
T 60
T 99
T 108
T 109
T 113
T 137
T 150
T 153
T 154
T 155
T 157
T 171
T 172
T 221
T 273
T 282
T 291
END

EOF
